p cnf 100 120
-3 -53 -31 0
24 -98 -84 0
-76 66 -94 0
-99 -40 97 0
-6 66 20 0
74 15 56 0
-57 54 72 0
-34 -35 -60 0
8 48 -63 0
41 -97 11 0
28 -70 -36 0
98 -67 -68 0
-100 52 -91 0
-81 63 84 0
66 29 6 0
59 66 83 0
60 43 50 0
72 2 -92 0
-15 -21 55 0
-8 10 68 0
-41 84 -65 0
94 100 -45 0
-86 -98 66 0
-61 -99 15 0
34 16 33 0
-66 9 -98 0
75 78 -91 0
17 57 -50 0
-45 68 27 0
-62 -50 -81 0
96 -40 -74 0
20 21 91 0
76 33 -28 0
-83 66 -61 0
-40 -25 -82 0
21 40 76 0
-22 90 62 0
84 -73 74 0
-38 51 -85 0
8 82 20 0
40 37 94 0
72 -25 64 0
-64 8 -76 0
44 -15 -28 0
25 -86 32 0
66 -68 38 0
61 94 89 0
-36 -89 -84 0
21 -3 48 0
3 -53 48 0
34 19 -89 0
87 61 10 0
-24 -18 93 0
-68 65 -97 0
1 10 -19 0
2 -67 -87 0
88 -100 -40 0
-46 55 71 0
51 -21 63 0
-70 -16 -94 0
22 -57 89 0
70 -69 20 0
32 28 96 0
-84 27 49 0
-78 40 13 0
-81 -71 -10 0
-46 -100 -42 0
86 51 -34 0
-86 43 -39 0
-78 88 -4 0
40 66 -47 0
39 -19 -65 0
38 -88 59 0
70 60 -18 0
-69 15 97 0
68 65 78 0
94 -18 1 0
-50 54 3 0
-84 -66 -39 0
10 76 71 0
39 -69 -2 0
70 -98 -6 0
14 62 72 0
75 97 -86 0
-69 42 43 0
-53 -61 -54 0
84 -11 -64 0
56 16 62 0
-90 -70 -86 0
58 18 -92 0
-81 -58 4 0
-71 -6 -47 0
-23 -24 10 0
10 -15 -32 0
66 24 83 0
-12 -54 10 0
49 96 77 0
-95 50 -36 0
-41 16 -43 0
31 -14 70 0
x 1 -3 5 -6 -7 8 9 10 -11 12 -14 15 17 -18 -20 21 -23 30 -32 33 -34 -35 38 -39 -40 41 42 -44 45 -47 50 54 -56 58 59 60 -61 64 -67 -75 -77 -78 79 80 81 83 85 -87 90 -92 -96 -98 -99 -100 0
x 1 4 -7 10 -13 -17 -18 19 -21 23 -24 25 -26 27 -29 -32 -33 34 -35 -37 39 40 43 46 -47 -49 -50 -52 54 -56 59 60 65 69 -71 76 78 79 84 -85 -90 -92 96 97 -98 99 100 0
x 1 2 -4 12 -13 -17 -18 -19 20 22 -23 24 26 27 30 -31 -34 39 41 -44 45 53 -54 -58 -59 -61 -63 -64 69 70 71 -73 78 80 81 -82 -83 84 86 87 88 -90 -91 92 94 -95 96 97 0
x 2 3 -4 5 6 7 -8 10 -12 -14 15 19 -20 21 24 28 -30 32 34 -35 37 -39 -40 -41 -48 -49 -50 -52 -55 58 62 -64 65 67 -69 70 -71 -79 81 83 84 -85 -88 89 91 94 -95 -96 98 0
x -2 3 -4 5 -8 -9 11 15 16 -17 -18 19 22 -25 -26 27 28 -30 33 34 35 -36 38 -39 41 -42 -46 -48 49 -50 51 -52 -54 -59 60 -61 65 66 -68 69 -72 -75 76 -77 -81 -82 83 85 86 -88 -90 -91 -93 -94 96 -97 98 -99 0
x -6 9 -10 -14 -16 -17 -19 -27 29 30 -34 -36 -38 -39 41 42 -48 49 52 -55 56 -57 -59 -60 -62 63 -65 -68 -69 71 72 -74 75 -76 -79 80 -82 83 -84 85 -87 88 -89 97 -98 0
x -4 6 8 11 13 -14 15 16 -18 -19 20 -21 22 24 -30 -31 33 -36 -37 -38 40 42 -44 -46 47 49 -51 54 -57 -60 61 64 68 -69 70 73 -74 -75 78 -79 -82 83 -85 86 -88 -89 -91 93 -97 0
x 3 6 -7 -8 10 -11 13 -14 -15 19 23 24 -29 -30 33 34 -35 37 -39 -41 -42 43 -44 46 48 51 53 -54 55 57 -58 -60 61 62 -63 65 66 70 -72 74 76 -79 81 -82 -85 86 -87 -91 93 95 -96 -98 0
x 1 2 4 -5 7 -9 -11 14 15 17 24 -25 26 27 28 29 32 34 39 -43 46 -47 -49 -51 -53 -54 57 60 -61 -62 63 65 -66 67 71 -73 75 76 -79 81 85 -87 -88 -89 94 95 -97 99 0
x 2 -6 7 -9 -10 17 18 -19 -20 -21 -23 25 26 -28 -29 30 33 42 -50 51 52 -53 -56 59 60 63 -64 -65 66 -69 70 71 72 -73 -74 -75 77 -80 81 82 -83 -84 -86 -90 -91 -92 -95 -98 100 0
x 1 -3 -4 7 -10 12 13 15 -16 -18 -20 21 22 -23 -24 28 -29 -30 32 -33 -39 -40 -41 -42 -44 45 46 50 -51 -52 -53 -56 58 -59 -60 -62 -63 65 66 -67 69 -70 -73 -74 -78 79 80 -82 -83 -86 88 -91 92 -96 97 -98 99 0
x 1 -2 -4 5 6 -7 -8 10 -12 -16 -17 -19 -21 24 25 -26 28 30 -31 32 -33 38 44 -50 51 53 -56 58 -66 -67 -69 -71 -72 73 -74 75 76 79 81 82 -83 -86 -87 89 90 -93 -94 -95 -96 97 -98 0
x 2 3 4 -5 -6 -11 13 14 -15 17 18 -21 -23 24 -25 -26 28 -29 -30 -32 33 -34 38 -40 -42 43 45 -46 47 -48 49 -50 52 55 56 57 -58 -64 68 -70 -71 -72 73 -74 -83 -84 -85 -86 -87 -88 93 95 -97 -98 -99 0
x -1 2 -3 4 -7 -9 12 16 -17 18 -21 -22 23 -28 29 31 32 33 -34 35 -38 -40 -41 -42 44 -46 -47 49 50 -51 -52 54 -58 -59 -61 -62 -63 -65 -66 68 69 71 73 -74 75 80 -82 -83 84 86 90 -93 -94 -98 99 0
x -1 2 -4 -5 7 9 12 -13 15 -16 -18 20 22 23 -27 -28 30 35 36 -39 40 46 47 -48 -50 51 53 -55 58 -59 61 62 -63 -65 66 -67 -68 -71 73 76 -77 -78 79 82 -84 -85 -89 -97 99 -100 0
x -1 -3 6 -7 -8 -10 13 14 -15 16 17 -20 23 25 26 -28 30 31 -33 34 38 -40 41 43 46 49 -50 -52 53 -54 55 -57 -58 62 64 66 -67 69 -70 71 74 -76 -77 -78 82 83 84 -86 87 90 91 -92 96 97 98 99 -100 0
x 4 -5 6 -7 -10 -11 13 15 -16 -21 -24 26 -28 30 -34 -35 38 -39 40 41 43 -44 -45 48 -51 -56 60 -61 62 63 -73 74 75 76 77 -78 79 80 81 83 87 -88 -89 -92 -96 -100 0
x -2 -3 5 6 9 10 15 17 -23 -31 -32 33 35 -42 44 -45 46 49 51 -53 -57 60 61 62 -64 -65 -67 69 -72 73 -74 75 77 82 -85 91 92 94 95 0
x -1 4 -5 -8 10 -17 19 -21 23 -24 -25 26 -27 -28 -29 31 -36 -37 39 40 41 42 43 -44 -46 47 48 50 -54 55 -56 58 -61 -62 -63 65 66 67 68 70 71 76 -77 -78 -79 -80 -81 -82 -84 89 -90 -92 96 0
x 1 2 -6 9 -10 -14 -15 -17 18 19 20 21 22 23 24 -26 28 -32 33 35 -36 38 -39 40 41 43 -44 45 48 50 -55 -56 -57 -59 -60 61 -62 -66 -68 70 72 74 77 -79 80 -83 -84 85 87 -88 -91 92 -98 0
